DIMACS_lns/graph-1000-212.col
p edge 1000 1853
e 1 845
e 1 945
e 1 963
e 1 470
e 2 947
e 2 623
e 2 499
e 3 694
e 3 485
e 3 177
e 3 935
e 3 698
e 5 202
e 5 785
e 5 153
e 5 845
e 5 108
e 6 677
e 6 913
e 6 204
e 6 722
e 10 34
e 10 522
e 10 597
e 10 611
e 10 758
e 10 571
e 10 208
e 12 19
e 12 966
e 12 42
e 12 633
e 13 110
e 13 100
e 13 135
e 13 357
e 13 476
e 13 818
e 14 833
e 14 438
e 14 618
e 15 444
e 15 240
e 15 231
e 15 523
e 15 332
e 16 829
e 16 361
e 16 816
e 16 940
e 17 723
e 17 605
e 17 549
e 17 774
e 17 60
e 17 530
e 18 117
e 18 709
e 18 651
e 18 409
e 18 190
e 19 452
e 19 787
e 20 591
e 20 365
e 20 936
e 20 593
e 20 916
e 22 249
e 22 134
e 22 56
e 22 286
e 23 463
e 23 260
e 23 934
e 23 481
e 23 93
e 23 871
e 25 823
e 25 590
e 25 211
e 25 993
e 25 481
e 25 196
e 26 416
e 26 249
e 26 482
e 26 203
e 26 603
e 26 220
e 27 412
e 27 114
e 27 314
e 27 825
e 28 339
e 28 991
e 28 100
e 28 790
e 28 488
e 29 718
e 29 750
e 29 901
e 31 742
e 31 937
e 31 354
e 32 107
e 32 907
e 32 530
e 32 653
e 34 602
e 34 758
e 34 142
e 34 256
e 34 628
e 34 103
e 34 448
e 35 87
e 35 588
e 35 696
e 36 109
e 36 482
e 36 609
e 36 229
e 38 739
e 38 426
e 38 268
e 38 544
e 38 592
e 38 838
e 38 990
e 39 117
e 39 228
e 39 727
e 39 753
e 39 179
e 39 258
e 40 662
e 40 587
e 40 770
e 40 590
e 40 775
e 40 914
e 41 819
e 41 624
e 41 863
e 41 772
e 42 706
e 42 916
e 42 871
e 42 770
e 43 522
e 43 377
e 43 844
e 43 714
e 44 829
e 44 209
e 44 663
e 44 273
e 45 88
e 45 917
e 45 730
e 45 164
e 45 148
e 47 776
e 47 335
e 47 628
e 47 662
e 48 822
e 48 101
e 48 60
e 50 227
e 50 670
e 50 544
e 50 718
e 50 208
e 50 341
e 51 739
e 51 910
e 51 54
e 53 140
e 53 843
e 53 864
e 53 927
e 53 167
e 53 485
e 53 65
e 54 432
e 54 167
e 54 576
e 54 411
e 54 956
e 54 195
e 54 144
e 55 457
e 55 785
e 55 177
e 55 783
e 56 608
e 56 637
e 56 430
e 56 797
e 57 978
e 57 378
e 57 413
e 57 626
e 57 659
e 57 514
e 58 618
e 58 549
e 58 556
e 58 234
e 58 432
e 60 786
e 60 65
e 60 933
e 60 724
e 60 591
e 62 179
e 62 988
e 62 227
e 62 108
e 62 148
e 62 707
e 62 442
e 65 641
e 65 109
e 65 957
e 66 469
e 66 143
e 66 393
e 66 630
e 67 201
e 67 554
e 67 534
e 67 730
e 67 994
e 68 545
e 68 453
e 68 257
e 68 399
e 68 529
e 68 237
e 69 600
e 69 110
e 69 125
e 69 357
e 69 968
e 73 176
e 73 399
e 73 758
e 73 489
e 74 230
e 74 91
e 74 584
e 74 932
e 74 176
e 74 661
e 74 423
e 74 411
e 74 632
e 74 819
e 76 466
e 76 317
e 76 351
e 76 198
e 76 201
e 76 382
e 76 127
e 77 927
e 77 763
e 77 624
e 78 140
e 78 108
e 78 422
e 78 519
e 78 735
e 78 825
e 78 845
e 78 915
e 79 582
e 79 268
e 79 774
e 79 167
e 79 670
e 79 656
e 79 707
e 81 528
e 81 824
e 81 735
e 81 423
e 81 109
e 82 475
e 82 370
e 82 574
e 82 361
e 82 719
e 83 642
e 83 558
e 83 378
e 85 798
e 85 280
e 85 693
e 85 895
e 86 921
e 86 699
e 86 628
e 86 285
e 87 658
e 87 457
e 87 150
e 88 907
e 88 474
e 88 422
e 88 318
e 88 624
e 88 575
e 88 843
e 88 361
e 89 818
e 89 547
e 89 97
e 89 509
e 89 758
e 90 408
e 90 355
e 90 625
e 90 247
e 90 221
e 90 783
e 91 270
e 91 617
e 91 819
e 91 126
e 91 804
e 91 883
e 91 222
e 92 928
e 92 495
e 92 302
e 92 715
e 93 103
e 93 438
e 93 259
e 94 393
e 94 568
e 94 756
e 94 509
e 94 932
e 97 999
e 97 307
e 98 438
e 98 129
e 98 230
e 98 147
e 98 999
e 98 419
e 98 893
e 99 263
e 99 535
e 99 622
e 99 402
e 100 352
e 100 234
e 100 912
e 100 759
e 100 801
e 101 634
e 101 747
e 101 426
e 103 697
e 103 542
e 103 928
e 104 322
e 104 257
e 104 241
e 107 816
e 107 569
e 107 435
e 107 820
e 107 846
e 108 448
e 108 873
e 108 822
e 108 623
e 108 710
e 109 791
e 109 883
e 109 169
e 109 341
e 109 900
e 109 263
e 110 212
e 110 682
e 110 588
e 110 939
e 110 962
e 110 346
e 110 933
e 111 691
e 111 161
e 111 184
e 111 738
e 112 223
e 112 126
e 112 249
e 112 789
e 112 665
e 113 483
e 113 736
e 113 579
e 113 372
e 113 681
e 114 135
e 114 122
e 114 486
e 114 648
e 115 613
e 115 835
e 115 117
e 116 648
e 116 261
e 116 833
e 116 794
e 116 825
e 116 692
e 117 372
e 117 247
e 117 936
e 118 718
e 118 946
e 118 320
e 121 449
e 121 505
e 121 674
e 121 397
e 122 201
e 122 804
e 122 607
e 122 544
e 122 479
e 122 608
e 122 556
e 124 144
e 124 634
e 124 943
e 125 926
e 125 993
e 125 681
e 126 899
e 126 346
e 127 162
e 127 356
e 129 629
e 129 720
e 129 139
e 130 658
e 130 730
e 130 644
e 130 919
e 131 794
e 131 457
e 131 334
e 131 937
e 132 215
e 132 448
e 132 269
e 132 164
e 134 732
e 134 445
e 134 250
e 134 149
e 134 677
e 134 462
e 134 326
e 135 788
e 135 660
e 136 242
e 136 265
e 136 518
e 136 583
e 136 887
e 136 975
e 139 549
e 139 231
e 139 144
e 139 590
e 140 148
e 140 640
e 142 706
e 142 798
e 143 365
e 143 602
e 143 444
e 143 437
e 143 774
e 146 835
e 146 189
e 146 459
e 147 238
e 147 983
e 147 470
e 147 777
e 148 291
e 148 843
e 148 542
e 149 422
e 149 340
e 149 159
e 150 814
e 150 166
e 150 174
e 150 325
e 151 244
e 151 218
e 151 553
e 151 560
e 152 238
e 152 703
e 152 275
e 153 846
e 153 598
e 153 700
e 156 747
e 156 315
e 156 609
e 156 256
e 157 736
e 157 431
e 157 362
e 157 739
e 157 821
e 157 191
e 158 983
e 158 611
e 158 886
e 158 727
e 159 549
e 159 512
e 159 877
e 159 959
e 159 307
e 159 420
e 160 300
e 160 922
e 160 980
e 160 459
e 161 696
e 161 690
e 161 274
e 161 800
e 162 325
e 162 674
e 162 379
e 162 962
e 164 844
e 164 912
e 165 966
e 165 824
e 165 496
e 165 559
e 166 780
e 166 534
e 167 184
e 168 229
e 168 226
e 168 230
e 169 725
e 169 536
e 169 345
e 169 290
e 169 559
e 170 227
e 170 646
e 170 913
e 170 239
e 170 819
e 171 994
e 171 358
e 171 251
e 171 593
e 171 921
e 173 365
e 173 606
e 173 462
e 173 249
e 173 888
e 173 342
e 174 307
e 174 374
e 174 760
e 174 777
e 174 357
e 175 623
e 175 733
e 175 531
e 175 555
e 175 754
e 175 763
e 176 977
e 176 966
e 176 464
e 176 381
e 176 447
e 176 722
e 176 546
e 177 509
e 177 331
e 179 716
e 179 199
e 179 186
e 180 444
e 180 852
e 180 796
e 180 814
e 180 433
e 182 547
e 182 399
e 182 795
e 184 346
e 186 998
e 186 647
e 186 637
e 189 471
e 189 753
e 189 340
e 189 484
e 189 240
e 189 935
e 189 720
e 190 724
e 190 416
e 190 432
e 190 882
e 191 444
e 191 438
e 191 415
e 192 475
e 192 959
e 192 301
e 193 749
e 193 305
e 193 699
e 193 718
e 193 597
e 194 881
e 194 411
e 194 232
e 194 519
e 194 543
e 195 327
e 195 522
e 195 433
e 196 199
e 196 667
e 196 984
e 196 837
e 196 645
e 198 803
e 198 445
e 198 633
e 199 784
e 199 994
e 201 540
e 201 570
e 201 674
e 201 747
e 202 891
e 202 667
e 203 516
e 203 933
e 203 856
e 204 920
e 204 626
e 204 563
e 205 498
e 205 514
e 205 602
e 206 416
e 206 278
e 206 498
e 206 363
e 206 612
e 206 886
e 206 934
e 206 864
e 206 651
e 208 638
e 209 651
e 209 675
e 210 644
e 210 600
e 210 237
e 210 675
e 210 382
e 210 253
e 210 999
e 210 496
e 211 453
e 211 414
e 211 730
e 211 662
e 211 536
e 212 628
e 212 831
e 213 830
e 213 512
e 213 503
e 215 413
e 215 365
e 216 886
e 216 636
e 216 365
e 218 543
e 218 275
e 218 949
e 218 286
e 219 412
e 219 304
e 219 987
e 219 844
e 220 726
e 220 275
e 220 370
e 221 399
e 221 364
e 222 866
e 222 538
e 222 563
e 223 377
e 223 797
e 224 261
e 224 310
e 224 922
e 224 431
e 225 961
e 225 582
e 225 253
e 225 506
e 226 279
e 226 843
e 226 298
e 226 755
e 226 636
e 227 925
e 227 262
e 227 292
e 227 796
e 228 952
e 228 636
e 228 723
e 228 675
e 229 571
e 229 531
e 230 279
e 230 319
e 230 722
e 230 256
e 231 437
e 231 996
e 231 330
e 232 853
e 232 473
e 232 474
e 232 824
e 232 917
e 232 594
e 234 719
e 234 577
e 234 525
e 234 601
e 237 996
e 237 660
e 238 718
e 238 558
e 239 335
e 239 438
e 239 892
e 239 244
e 239 290
e 239 732
e 240 282
e 240 550
e 241 945
e 241 420
e 241 486
e 241 739
e 241 590
e 241 780
e 241 351
e 242 378
e 242 902
e 242 518
e 242 350
e 242 486
e 244 829
e 247 297
e 247 416
e 249 430
e 249 615
e 249 706
e 249 578
e 250 603
e 250 292
e 251 829
e 251 993
e 253 803
e 253 449
e 254 511
e 254 834
e 254 482
e 254 355
e 254 813
e 254 274
e 255 489
e 255 974
e 255 909
e 255 630
e 255 852
e 256 301
e 256 411
e 256 732
e 256 399
e 256 667
e 256 393
e 257 924
e 257 358
e 257 331
e 257 415
e 257 917
e 258 451
e 258 471
e 258 563
e 258 986
e 258 766
e 258 618
e 258 338
e 258 772
e 258 817
e 258 290
e 259 406
e 259 759
e 259 462
e 260 771
e 260 717
e 260 441
e 260 726
e 260 831
e 260 686
e 260 615
e 261 500
e 262 636
e 262 680
e 263 495
e 263 292
e 263 422
e 263 522
e 265 465
e 265 337
e 265 322
e 266 925
e 266 851
e 266 578
e 266 819
e 268 297
e 268 393
e 268 850
e 268 858
e 268 980
e 269 716
e 269 696
e 270 665
e 270 322
e 272 595
e 272 300
e 272 790
e 273 626
e 273 341
e 274 610
e 275 437
e 276 761
e 276 817
e 276 538
e 276 956
e 276 410
e 276 588
e 278 963
e 278 462
e 278 747
e 278 407
e 278 794
e 279 546
e 279 612
e 279 535
e 280 829
e 280 799
e 280 430
e 281 648
e 281 825
e 281 675
e 281 795
e 281 786
e 281 578
e 282 762
e 282 605
e 284 970
e 284 750
e 284 694
e 284 540
e 284 385
e 285 411
e 285 319
e 285 760
e 285 597
e 285 451
e 286 466
e 287 786
e 287 393
e 287 587
e 290 605
e 290 499
e 291 409
e 291 889
e 291 466
e 292 775
e 292 578
e 292 972
e 292 635
e 295 683
e 295 401
e 295 360
e 295 893
e 295 474
e 296 315
e 296 358
e 296 615
e 296 475
e 296 719
e 297 709
e 297 363
e 297 409
e 297 990
e 298 559
e 298 738
e 298 406
e 298 536
e 298 398
e 300 949
e 300 825
e 300 380
e 300 927
e 300 679
e 301 413
e 302 646
e 302 361
e 302 568
e 302 321
e 303 667
e 303 479
e 303 653
e 304 487
e 304 839
e 304 379
e 304 637
e 305 536
e 305 755
e 307 431
e 309 733
e 309 519
e 309 320
e 309 876
e 310 656
e 310 350
e 310 455
e 312 896
e 312 539
e 312 972
e 312 321
e 314 682
e 314 978
e 315 877
e 315 739
e 316 418
e 316 994
e 316 349
e 317 963
e 317 685
e 317 384
e 317 886
e 318 786
e 318 451
e 318 415
e 318 970
e 319 727
e 320 700
e 320 321
e 321 592
e 322 950
e 322 432
e 322 370
e 322 642
e 322 346
e 323 747
e 323 886
e 323 411
e 323 345
e 325 837
e 326 863
e 326 987
e 327 887
e 327 862
e 327 657
e 330 410
e 330 578
e 330 539
e 330 652
e 330 631
e 331 626
e 331 768
e 331 813
e 332 642
e 332 438
e 332 446
e 332 675
e 334 463
e 334 632
e 334 352
e 334 385
e 334 356
e 335 798
e 335 414
e 336 761
e 336 881
e 336 988
e 337 747
e 337 623
e 337 893
e 338 795
e 338 803
e 338 685
e 339 990
e 339 938
e 339 909
e 339 362
e 339 792
e 340 798
e 340 735
e 341 981
e 341 577
e 341 900
e 342 837
e 342 394
e 345 920
e 345 534
e 345 839
e 346 710
e 346 362
e 349 530
e 349 620
e 349 359
e 349 920
e 349 990
e 350 489
e 350 433
e 350 717
e 350 659
e 350 474
e 351 477
e 351 703
e 352 610
e 352 661
e 353 717
e 353 525
e 353 601
e 354 530
e 354 545
e 354 455
e 354 633
e 354 710
e 355 833
e 355 543
e 355 857
e 356 971
e 357 877
e 357 727
e 358 576
e 359 470
e 359 747
e 359 794
e 359 544
e 359 629
e 359 909
e 360 445
e 360 471
e 360 523
e 361 816
e 361 363
e 361 913
e 361 733
e 363 720
e 363 574
e 363 950
e 363 991
e 363 565
e 363 811
e 363 868
e 364 956
e 364 859
e 365 777
e 365 520
e 365 716
e 366 520
e 366 820
e 366 547
e 370 379
e 370 736
e 372 399
e 372 694
e 374 535
e 374 565
e 376 466
e 376 399
e 376 720
e 376 598
e 377 657
e 377 685
e 378 768
e 378 547
e 378 979
e 380 490
e 380 910
e 381 987
e 381 659
e 382 800
e 382 758
e 382 538
e 382 841
e 382 855
e 384 446
e 384 732
e 384 865
e 384 883
e 385 679
e 393 833
e 393 918
e 393 763
e 393 949
e 394 418
e 394 996
e 394 800
e 394 811
e 397 726
e 397 855
e 397 921
e 398 916
e 398 461
e 398 789
e 399 569
e 399 678
e 399 557
e 399 454
e 399 813
e 400 625
e 400 622
e 400 466
e 401 727
e 401 486
e 401 670
e 402 951
e 402 613
e 406 993
e 407 857
e 407 885
e 407 838
e 407 634
e 407 922
e 408 933
e 408 980
e 409 475
e 409 826
e 410 412
e 411 880
e 411 516
e 411 446
e 411 565
e 412 735
e 413 681
e 414 896
e 414 559
e 415 454
e 415 594
e 416 735
e 416 557
e 417 491
e 417 550
e 417 576
e 417 817
e 417 445
e 417 590
e 418 625
e 418 470
e 419 981
e 419 761
e 419 667
e 419 844
e 420 516
e 420 611
e 422 799
e 423 706
e 423 619
e 423 697
e 423 952
e 423 431
e 424 943
e 424 600
e 424 511
e 424 980
e 426 528
e 426 877
e 426 448
e 426 690
e 426 622
e 429 788
e 429 816
e 429 692
e 430 770
e 430 651
e 431 444
e 431 468
e 431 627
e 432 848
e 432 620
e 433 644
e 433 804
e 433 774
e 434 538
e 434 919
e 434 964
e 435 760
e 435 623
e 435 838
e 437 460
e 437 573
e 437 488
e 438 880
e 438 460
e 438 842
e 438 525
e 438 474
e 438 550
e 441 880
e 441 858
e 441 736
e 441 939
e 442 900
e 442 887
e 442 935
e 444 723
e 444 575
e 444 749
e 445 501
e 445 730
e 445 978
e 447 660
e 447 710
e 447 516
e 447 922
e 447 448
e 448 909
e 448 659
e 449 525
e 449 627
e 449 801
e 451 775
e 451 471
e 452 543
e 452 747
e 453 843
e 453 507
e 454 555
e 455 600
e 455 798
e 455 759
e 455 638
e 455 881
e 456 726
e 456 829
e 456 900
e 456 500
e 456 796
e 459 755
e 459 720
e 459 511
e 460 902
e 461 984
e 461 846
e 461 864
e 461 723
e 461 694
e 462 759
e 462 631
e 463 597
e 463 636
e 463 520
e 463 882
e 463 573
e 463 645
e 464 825
e 464 831
e 465 715
e 465 619
e 465 474
e 466 630
e 467 700
e 467 864
e 467 512
e 468 972
e 468 637
e 469 635
e 469 506
e 470 804
e 470 487
e 470 882
e 471 910
e 473 597
e 473 848
e 474 501
e 474 900
e 474 968
e 475 887
e 476 774
e 476 918
e 477 661
e 477 696
e 479 746
e 479 499
e 479 776
e 480 959
e 480 494
e 480 725
e 481 988
e 482 881
e 482 576
e 482 963
e 482 556
e 483 816
e 483 590
e 483 728
e 484 970
e 484 921
e 484 827
e 484 937
e 484 690
e 485 806
e 485 889
e 486 525
e 486 573
e 486 859
e 487 858
e 487 566
e 488 595
e 489 562
e 489 856
e 490 858
e 490 581
e 490 658
e 491 946
e 491 602
e 494 976
e 494 588
e 495 834
e 495 990
e 496 724
e 496 836
e 498 715
e 500 588
e 501 544
e 501 513
e 501 577
e 503 868
e 503 562
e 503 900
e 503 973
e 505 973
e 505 798
e 506 766
e 506 940
e 506 763
e 506 787
e 507 543
e 507 575
e 507 870
e 509 693
e 509 725
e 509 760
e 509 846
e 511 895
e 512 876
e 513 648
e 513 803
e 514 966
e 516 644
e 516 957
e 516 926
e 518 747
e 518 962
e 520 684
e 520 783
e 520 721
e 520 615
e 522 999
e 523 608
e 523 690
e 523 553
e 525 833
e 525 820
e 528 680
e 528 618
e 529 850
e 529 889
e 530 541
e 530 667
e 530 841
e 530 961
e 530 744
e 531 772
e 532 623
e 532 865
e 532 721
e 532 746
e 535 683
e 536 824
e 536 792
e 536 645
e 539 983
e 539 769
e 540 852
e 540 661
e 540 633
e 540 816
e 540 547
e 541 990
e 541 886
e 541 800
e 541 775
e 541 553
e 542 932
e 542 720
e 542 570
e 543 755
e 543 789
e 543 633
e 544 843
e 544 760
e 545 784
e 545 568
e 545 652
e 545 766
e 546 573
e 547 611
e 549 774
e 550 927
e 553 919
e 553 775
e 553 799
e 554 733
e 554 946
e 554 629
e 554 680
e 555 871
e 555 910
e 555 590
e 555 811
e 555 674
e 555 738
e 556 752
e 557 752
e 558 726
e 559 911
e 559 681
e 560 852
e 560 909
e 560 581
e 562 772
e 562 974
e 562 606
e 563 822
e 563 693
e 566 842
e 566 877
e 567 922
e 567 576
e 567 978
e 567 984
e 568 975
e 569 824
e 569 720
e 569 770
e 570 783
e 570 719
e 570 981
e 571 845
e 573 857
e 573 844
e 573 632
e 574 579
e 574 888
e 575 750
e 577 710
e 577 818
e 577 775
e 577 936
e 578 640
e 579 635
e 579 843
e 581 693
e 582 845
e 583 638
e 583 927
e 583 934
e 584 961
e 584 981
e 584 718
e 584 914
e 587 791
e 590 618
e 590 759
e 591 663
e 591 628
e 591 859
e 592 845
e 592 663
e 592 641
e 593 734
e 593 837
e 594 981
e 594 632
e 594 771
e 594 919
e 595 850
e 595 759
e 595 616
e 595 790
e 595 678
e 595 728
e 595 848
e 597 920
e 597 887
e 597 770
e 598 951
e 601 651
e 602 845
e 603 945
e 603 798
e 605 981
e 606 810
e 606 630
e 607 775
e 607 762
e 607 841
e 607 901
e 608 613
e 608 719
e 609 804
e 609 918
e 609 912
e 610 853
e 610 814
e 610 638
e 610 640
e 611 633
e 612 806
e 613 826
e 613 733
e 613 657
e 615 842
e 616 866
e 616 797
e 617 619
e 617 685
e 620 825
e 622 783
e 622 834
e 623 796
e 624 678
e 625 816
e 625 710
e 625 647
e 626 961
e 627 968
e 628 684
e 630 885
e 631 641
e 632 896
e 632 678
e 632 672
e 632 670
e 633 695
e 634 936
e 635 742
e 635 646
e 635 706
e 636 950
e 636 681
e 637 918
e 637 691
e 638 726
e 638 754
e 640 881
e 641 822
e 644 769
e 646 775
e 646 800
e 646 895
e 647 808
e 647 957
e 647 764
e 648 656
e 648 706
e 651 670
e 651 929
e 652 907
e 652 672
e 653 881
e 653 801
e 653 723
e 653 827
e 656 949
e 657 948
e 658 825
e 659 683
e 660 711
e 660 971
e 661 836
e 661 833
e 662 827
e 663 856
e 663 758
e 665 939
e 665 964
e 665 843
e 667 979
e 667 943
e 670 811
e 670 833
e 672 848
e 672 831
e 672 795
e 674 747
e 675 870
e 675 964
e 675 902
e 677 686
e 678 785
e 679 911
e 679 918
e 681 901
e 682 873
e 682 778
e 683 866
e 683 817
e 684 886
e 686 886
e 691 766
e 692 769
e 692 962
e 692 998
e 692 914
e 693 987
e 694 697
e 694 870
e 694 973
e 695 836
e 695 804
e 696 951
e 697 987
e 697 721
e 697 846
e 698 786
e 698 778
e 699 851
e 703 734
e 706 938
e 706 715
e 707 771
e 709 712
e 709 734
e 709 947
e 709 718
e 711 823
e 711 728
e 712 814
e 712 811
e 714 735
e 714 787
e 714 790
e 715 817
e 715 792
e 716 961
e 717 744
e 718 852
e 720 759
e 720 871
e 720 820
e 721 799
e 721 926
e 722 886
e 723 816
e 723 924
e 726 735
e 726 881
e 726 883
e 730 746
e 730 976
e 732 856
e 734 881
e 734 749
e 735 844
e 735 975
e 739 949
e 742 844
e 742 780
e 744 871
e 744 843
e 744 977
e 746 932
e 746 788
e 747 786
e 749 947
e 752 919
e 753 966
e 754 902
e 755 889
e 755 895
e 756 935
e 756 964
e 756 952
e 756 863
e 758 983
e 760 938
e 761 821
e 761 936
e 762 880
e 764 975
e 764 892
e 766 940
e 766 778
e 768 798
e 768 928
e 768 993
e 770 946
e 770 956
e 772 862
e 776 946
e 777 901
e 777 945
e 780 797
e 780 977
e 784 885
e 786 980
e 787 833
e 787 979
e 790 799
e 791 834
e 794 859
e 795 943
e 795 848
e 796 804
e 796 818
e 801 833
e 804 891
e 804 855
e 806 929
e 806 819
e 808 853
e 808 892
e 810 976
e 810 821
e 811 881
e 816 973
e 816 956
e 817 858
e 819 888
e 822 870
e 823 932
e 824 830
e 825 896
e 826 862
e 827 948
e 827 864
e 829 927
e 829 919
e 830 870
e 831 959
e 831 924
e 835 873
e 835 844
e 836 928
e 837 986
e 839 862
e 842 882
e 843 916
e 844 915
e 845 996
e 846 978
e 848 947
e 851 921
e 851 856
e 852 964
e 852 934
e 855 991
e 857 917
e 858 998
e 858 914
e 862 896
e 864 950
e 865 936
e 866 935
e 866 876
e 868 902
e 870 883
e 870 922
e 871 929
e 873 907
e 877 880
e 880 991
e 881 990
e 885 978
e 885 925
e 887 981
e 888 951
e 889 901
e 891 998
e 896 973
e 896 899
e 899 911
e 899 910
e 900 910
e 902 921
e 914 925
e 915 950
e 917 991
e 918 943
e 927 966
e 935 976
e 937 970
e 939 950
e 940 994
e 948 988
e 971 986
e 973 984
e 974 987
e 980 998
e 996 999
